sat
(:added-eqs               14
 :arith-branch            129
 :arith-conflicts         10
 :arith-cube-calls        32
 :arith-cube-success      1
 :arith-dio-calls         129
 :arith-fixed-eqs         15
 :arith-gcd-calls         130
 :arith-lower             98
 :arith-make-feasible     169
 :arith-max-columns       212
 :arith-max-rows          84
 :arith-patches           130
 :arith-upper             225
 :conflicts               10
 :decisions               140
 :final-checks            130
 :max-memory              59.83
 :memory                  21.30
 :mk-bool-var             323
 :mk-clause               10
 :num-allocs              5488035080.00
 :num-checks              2
 :propagations            3
 :rlimit-count            19001924
 :sat-backjumps           56227
 :sat-backtracks          133
 :sat-conflicts           56360
 :sat-decisions           192233
 :sat-del-clause          15301
 :sat-elim-bool-vars-res  2817
 :sat-elim-clauses        935
 :sat-elim-literals       525
 :sat-minimized-lits      712750
 :sat-mk-clause-2ary      37395
 :sat-mk-clause-3ary      9943
 :sat-mk-clause-nary      146838
 :sat-mk-var              34436
 :sat-probing-assigned    217
 :sat-propagations-2ary   9870508
 :sat-propagations-nary   8465453
 :sat-restarts            7731
 :sat-scc-elim-binary     2
 :sat-scc-elim-vars       1
 :sat-subs-resolution     72
 :sat-subs-resolution-dyn 17248
 :sat-subsumed            103
 :sat-units               238
 :time                    7.07
 :total-time              7.07)
